c File: instances/26_0.10_2.col
c
c Description: Random graph of size 26 vertices and P(0.1) of edges between any two vertices.
p col 26 325
e 1 12
e 1 16
e 2 3
e 2 10
e 2 18
e 2 23
e 3 19
e 3 24
e 4 5
e 4 10
e 4 24
e 4 25
e 5 7
e 5 19
e 6 8
e 6 9
e 6 16
e 6 17
e 6 18
e 6 23
e 6 25
e 7 19
e 7 23
e 8 22
e 9 14
e 9 15
e 9 18
e 9 22
e 9 25
e 11 18
e 11 19
e 11 25
e 12 19
e 12 25
e 13 18
e 13 26
e 14 22
e 14 23
e 16 19
e 17 19
e 17 21
e 18 25
e 19 22
e 21 25